11
52
13
58
65
10
22
48
23
17
49
8
38
6
34
7
45
66
25
16
50
5
67
18
53
12
70
59
69
19
36
56
14
4
29
74
75
3
33
51
26
44
28
47
20
60
63
41
40
55
42
21
68
35
46
73
1
27
61
72
0
32
62
15
71
9
30
54
24
31
43
2
39
57
37
64
